
Gurobi 9.1.2 (win64, Java) logging started Sun Nov 14 00:27:22 2021

Academic license - for non-commercial use only - expires 2022-10-30
Gurobi Optimizer version 9.1.2 build v9.1.2rc0 (win64)
Thread count: 6 physical cores, 12 logical processors, using up to 12 threads
Optimize a model with 40 rows, 400 columns and 800 nonzeros
Model fingerprint: 0xa7f6e3f4
Variable types: 0 continuous, 400 integer (400 binary)
Coefficient statistics:
  Matrix range     [1e+00, 1e+03]
  Objective range  [4e+02, 1e+03]
  Bounds range     [1e+00, 1e+00]
  RHS range        [1e+00, 5e+02]
Found heuristic solution: objective 4401.0000000
Presolve removed 30 rows and 379 columns
Presolve time: 0.02s
Presolved: 10 rows, 21 columns, 42 nonzeros
Variable types: 0 continuous, 21 integer (21 binary)
Presolved: 10 rows, 21 columns, 42 nonzeros


Root relaxation: cutoff, 7 iterations, 0.00 seconds

    Nodes    |    Current Node    |     Objective Bounds      |     Work
 Expl Unexpl |  Obj  Depth IntInf | Incumbent    BestBd   Gap | It/Node Time

     0     0     cutoff    0      4401.00000 4401.00000  0.00%     -    0s

Explored 0 nodes (7 simplex iterations) in 0.02 seconds
Thread count was 12 (of 12 available processors)

Solution count 1: 4401 

Optimal solution found (tolerance 1.00e-12)
Best objective 4.401000000000e+03, best bound 4.401000000000e+03, gap 0.0000%
